;; unsat

(declare-const x1 sl.list.loc)
(declare-const x2 sl.list.loc)
(declare-const x3 sl.list.loc)
(declare-const x4 sl.list.loc)
(declare-const x5 sl.list.loc)
(declare-const x6 sl.list.loc)
(declare-const x7 sl.list.loc)
(declare-const x8 sl.list.loc)
(declare-const x9 sl.list.loc)
(declare-const x10 sl.list.loc)
(declare-const x11 sl.list.loc)
(declare-const x12 sl.list.loc)
(declare-const x13 sl.list.loc)
(declare-const x14 sl.list.loc)
(declare-const x15 sl.list.loc)
(declare-const x16 sl.list.loc)

(assert (sl.sepcon (sl.sepcon (sl.sepcon (sl.sepcon (sl.sepcon (sl.sepcon (sl.sepcon (sl.sepcon (sl.sepcon (sl.sepcon (sl.sepcon (sl.sepcon (sl.sepcon (sl.sepcon (sl.sepcon (sl.sepcon (sl.sepcon (sl.sepcon (sl.sepcon (sl.sepcon (sl.sepcon (sl.sepcon (sl.sepcon (sl.sepcon (sl.sepcon (sl.list.eq sl.list.null sl.list.null)
 (sl.list.neq x11 x12)
)
 (sl.list.neq x11 x14)
)
 (sl.list.neq x3 x11)
)
 (sl.list.neq x3 x13)
)
 (sl.list.neq x3 x5)
)
 (sl.list.neq x7 x11)
)
 (sl.list.neq x7 x14)
)
 (sl.list.neq x9 x16)
)
 (sl.list.neq x9 x10)
)
 (sl.list.neq x9 x12)
)
 (sl.list.neq x9 x15)
)
 (sl.list.neq x12 x13)
)
 (sl.list.neq x2 x7)
)
 (sl.list.neq x2 x9)
)
 (sl.list.neq x14 x16)
)
 (sl.list.neq x4 x5)
)
 (sl.list.neq x4 x15)
)
 (sl.list.neq x1 x7)
)
 (sl.list.neq x1 x14)
)
 (sl.list.neq x10 x13)
)
 (sl.list.neq x10 x15)
)
 (sl.list.neq x5 x7)
)
 (sl.list.neq x5 x13)
)
 (sl.list.neq x5 x12)
)
 (sl.sepcon (sl.sepcon (sl.sepcon (sl.sepcon (sl.sepcon (sl.sepcon (sl.sepcon (sl.sepcon (sl.list.seg x13 x3)
 (sl.list.seg x8 x16)
)
 (sl.list.seg x14 x2)
)
 (sl.list.seg x15 x10)
)
 (sl.list.seg x9 x2)
)
 (sl.list.seg x9 x10)
)
 (sl.list.seg x7 x9)
)
 (sl.list.seg x3 x4)
)
 (sl.list.seg x6 x8)
)
)
)

